p wcnf 140 1600
3 -136 139 0
1 -135 -139 0
6 -135 140 0
7 -132 134 0
7 -131 139 0
9 -129 -140 0
10 -128 -131 0
2 -127 132 0
2 -126 139 0
4 -125 -127 0
3 -125 134 0
10 -122 140 0
5 -121 -133 0
8 -121 131 0
1 -120 -132 0
2 -119 -127 0
7 -119 123 0
5 -118 -138 0
4 -118 -137 0
2 -118 -127 0
2 -117 123 0
4 -116 123 0
9 -115 -129 0
8 -115 135 0
6 -114 -138 0
10 -114 -125 0
1 -114 125 0
3 -114 128 0
3 -113 124 0
3 -112 -133 0
9 -112 -129 0
5 -111 112 0
4 -111 116 0
6 -110 -138 0
2 -110 -133 0
9 -109 -132 0
5 -109 123 0
2 -108 -138 0
2 -107 -108 0
6 -106 -126 0
5 -106 -113 0
3 -106 -108 0
5 -106 119 0
9 -106 121 0
10 -106 137 0
6 -104 -134 0
1 -104 -124 0
6 -104 -122 0
1 -104 -105 0
5 -104 111 0
8 -104 123 0
2 -104 139 0
7 -103 -108 0
7 -103 -104 0
9 -102 -134 0
3 -102 -124 0
6 -102 -108 0
10 -100 -117 0
5 -100 -114 0
8 -100 115 0
3 -99 -119 0
5 -99 -114 0
3 -99 126 0
6 -99 137 0
10 -98 -135 0
4 -98 -105 0
5 -98 101 0
4 -98 117 0
6 -98 120 0
6 -98 133 0
9 -97 105 0
10 -97 112 0
8 -97 120 0
5 -96 127 0
9 -96 139 0
8 -95 -124 0
9 -95 99 0
9 -95 108 0
4 -95 135 0
9 -95 139 0
4 -94 -130 0
2 -94 101 0
2 -94 112 0
1 -94 136 0
8 -93 -117 0
1 -92 -133 0
4 -92 -132 0
4 -92 103 0
1 -92 119 0
8 -91 -134 0
2 -91 129 0
3 -91 139 0
3 -91 140 0
5 -90 -119 0
8 -90 -111 0
2 -90 116 0
8 -90 117 0
3 -89 -123 0
6 -89 -115 0
4 -89 112 0
8 -89 139 0
5 -88 -118 0
4 -88 -109 0
6 -88 -103 0
9 -88 -100 0
3 -88 109 0
4 -87 -136 0
8 -87 -129 0
2 -87 -98 0
7 -87 -92 0
7 -86 -140 0
5 -86 -127 0
8 -86 -123 0
8 -86 -89 0
5 -86 87 0
6 -86 90 0
9 -86 108 0
8 -85 -126 0
9 -85 -111 0
9 -85 -107 0
6 -85 -106 0
2 -85 94 0
2 -85 117 0
7 -85 131 0
5 -84 -116 0
8 -84 -108 0
9 -84 89 0
4 -84 108 0
1 -84 139 0
4 -83 -100 0
6 -83 -89 0
8 -82 -131 0
8 -82 -109 0
9 -82 -90 0
3 -82 121 0
7 -82 123 0
1 -82 130 0
6 -81 -130 0
5 -81 -122 0
2 -81 -116 0
3 -81 -83 0
2 -81 92 0
6 -81 112 0
1 -81 136 0
10 -80 -119 0
10 -80 138 0
6 -79 -94 0
8 -79 -84 0
7 -79 105 0
6 -79 114 0
7 -78 -140 0
3 -78 80 0
6 -78 104 0
7 -77 -121 0
9 -77 -97 0
2 -77 -79 0
6 -77 111 0
8 -75 -138 0
4 -75 -111 0
6 -75 -100 0
2 -75 -85 0
10 -75 131 0
4 -74 -117 0
9 -74 -99 0
8 -74 80 0
6 -74 96 0
6 -73 -83 0
8 -73 -80 0
2 -73 80 0
1 -73 86 0
9 -73 93 0
4 -73 131 0
2 -72 -138 0
5 -72 -96 0
4 -72 -93 0
2 -72 89 0
5 -72 112 0
10 -72 123 0
9 -72 131 0
2 -71 -98 0
5 -71 -87 0
5 -71 84 0
4 -71 86 0
2 -71 100 0
3 -70 -85 0
3 -70 -80 0
3 -70 104 0
7 -70 119 0
10 -69 -140 0
6 -69 -73 0
3 -69 73 0
2 -69 75 0
5 -68 -134 0
6 -68 -131 0
1 -68 -129 0
4 -68 -125 0
2 -68 -105 0
7 -68 -96 0
2 -68 84 0
3 -68 85 0
7 -68 87 0
1 -68 96 0
5 -68 118 0
8 -68 129 0
5 -67 -136 0
9 -67 -132 0
9 -67 -122 0
9 -67 -110 0
8 -67 -108 0
7 -67 -86 0
1 -67 -74 0
3 -67 118 0
3 -67 119 0
4 -67 136 0
4 -66 -127 0
5 -66 -122 0
6 -66 -120 0
5 -66 -119 0
2 -66 -103 0
6 -66 80 0
1 -66 88 0
4 -65 -135 0
7 -65 -121 0
6 -65 -90 0
9 -65 -77 0
7 -65 75 0
8 -65 98 0
10 -65 105 0
4 -65 108 0
9 -65 128 0
2 -64 -129 0
10 -64 -127 0
9 -64 -114 0
6 -64 -97 0
8 -64 78 0
5 -64 92 0
5 -64 96 0
6 -64 105 0
4 -64 106 0
3 -63 -136 0
4 -63 -133 0
4 -63 -132 0
5 -63 -77 0
6 -63 -72 0
7 -63 -71 0
8 -63 -64 0
10 -63 71 0
3 -63 82 0
4 -63 89 0
2 -63 115 0
8 -63 125 0
4 -62 -73 0
5 -62 84 0
5 -62 86 0
9 -62 96 0
4 -62 113 0
3 -62 131 0
7 -61 -134 0
4 -61 -120 0
6 -61 -73 0
6 -61 -65 0
5 -61 81 0
6 -60 -71 0
6 -60 -70 0
1 -60 67 0
3 -59 -122 0
9 -59 64 0
5 -59 133 0
9 -58 -120 0
3 -58 -117 0
7 -58 -115 0
3 -58 -101 0
6 -58 85 0
3 -58 99 0
8 -58 100 0
3 -58 101 0
10 -58 109 0
7 -58 113 0
5 -58 127 0
3 -57 -66 0
8 -57 66 0
3 -57 104 0
6 -56 -126 0
3 -56 -104 0
7 -56 -97 0
5 -56 -88 0
6 -56 77 0
9 -56 105 0
2 -55 -134 0
9 -55 -76 0
5 -55 -59 0
8 -55 -56 0
4 -55 58 0
10 -55 109 0
4 -55 119 0
4 -54 -104 0
3 -54 -97 0
3 -54 -83 0
9 -54 -68 0
2 -54 -66 0
5 -54 59 0
6 -54 63 0
3 -54 71 0
10 -54 86 0
8 -54 92 0
1 -54 119 0
2 -54 124 0
7 -54 125 0
7 -54 130 0
6 -54 131 0
10 -53 -138 0
5 -53 83 0
8 -52 -93 0
6 -52 -53 0
8 -52 106 0
6 -51 -113 0
2 -51 -106 0
4 -51 -98 0
5 -51 -82 0
3 -51 80 0
3 -50 -131 0
9 -50 -100 0
10 -50 -78 0
6 -50 -63 0
9 -50 64 0
3 -50 110 0
9 -49 -117 0
2 -49 -97 0
5 -49 84 0
8 -48 -124 0
3 -48 -116 0
9 -48 -106 0
4 -48 -66 0
5 -48 -55 0
9 -48 101 0
1 -48 119 0
5 -48 122 0
1 -48 128 0
7 -48 131 0
2 -47 -100 0
6 -47 -73 0
7 -47 -55 0
7 -47 91 0
5 -47 97 0
4 -46 -137 0
4 -46 -101 0
9 -46 -93 0
4 -46 -82 0
7 -46 -78 0
4 -46 -77 0
6 -46 -76 0
9 -46 -64 0
3 -46 -61 0
6 -46 75 0
5 -46 129 0
1 -46 135 0
8 -45 -140 0
4 -45 -132 0
2 -45 -129 0
3 -45 -101 0
2 -45 -82 0
4 -45 -74 0
3 -45 48 0
5 -45 65 0
8 -45 71 0
1 -45 119 0
5 -44 -132 0
3 -44 -110 0
2 -44 -96 0
2 -44 -69 0
4 -44 -66 0
7 -44 -59 0
8 -44 53 0
10 -44 68 0
2 -44 87 0
2 -44 93 0
4 -44 94 0
1 -43 -135 0
5 -43 -119 0
1 -43 -116 0
4 -43 -115 0
10 -43 46 0
9 -43 58 0
6 -43 63 0
5 -43 68 0
4 -43 91 0
6 -43 102 0
3 -43 113 0
8 -43 118 0
8 -43 138 0
6 -42 -123 0
9 -42 -113 0
1 -42 -111 0
7 -42 -90 0
3 -42 -81 0
8 -42 -59 0
8 -42 -46 0
7 -42 86 0
10 -42 116 0
8 -42 117 0
8 -41 -89 0
4 -41 -78 0
6 -41 82 0
6 -41 106 0
4 -41 122 0
7 -40 -140 0
7 -40 -138 0
7 -40 -131 0
7 -40 -47 0
1 -40 44 0
7 -40 46 0
10 -40 53 0
1 -40 67 0
6 -40 92 0
5 -40 109 0
6 -40 139 0
10 -39 -134 0
2 -39 -113 0
8 -39 -80 0
7 -39 -60 0
8 -39 43 0
4 -39 63 0
6 -39 106 0
9 -38 -102 0
1 -38 -96 0
8 -38 -62 0
7 -38 45 0
8 -38 91 0
4 -38 111 0
7 -38 136 0
6 -37 -134 0
2 -37 -106 0
10 -37 -85 0
2 -37 88 0
7 -37 89 0
4 -37 91 0
7 -37 133 0
4 -36 -131 0
10 -36 -88 0
4 -36 -50 0
4 -36 104 0
7 -36 115 0
4 -36 134 0
4 -36 140 0
3 -35 -132 0
8 -35 -128 0
9 -35 -104 0
3 -35 -100 0
9 -35 -93 0
7 -35 -90 0
9 -35 -54 0
7 -35 -48 0
10 -35 -41 0
4 -35 69 0
6 -35 109 0
10 -35 110 0
2 -34 -117 0
2 -34 -110 0
8 -34 -92 0
6 -34 -90 0
8 -34 -80 0
4 -34 -72 0
7 -34 -57 0
8 -34 50 0
5 -34 68 0
4 -34 92 0
2 -34 113 0
2 -34 118 0
7 -33 -134 0
1 -33 -128 0
5 -33 -112 0
10 -33 -111 0
7 -33 -43 0
8 -33 53 0
4 -33 60 0
9 -33 105 0
6 -33 108 0
3 -33 110 0
1 -33 117 0
4 -32 -131 0
9 -32 -111 0
9 -32 -100 0
1 -32 -89 0
9 -32 -86 0
4 -32 -40 0
6 -32 51 0
9 -32 62 0
5 -32 75 0
7 -32 97 0
6 -32 98 0
10 -32 104 0
5 -32 116 0
9 -32 126 0
7 -31 -75 0
3 -31 -61 0
4 -31 -52 0
9 -31 105 0
3 -31 115 0
5 -31 121 0
6 -31 127 0
3 -31 128 0
10 -30 -136 0
6 -30 -116 0
9 -30 -101 0
7 -30 -96 0
9 -30 -45 0
8 -30 130 0
3 -29 -117 0
2 -29 -90 0
9 -29 -64 0
6 -29 -61 0
1 -29 -39 0
8 -29 34 0
6 -29 54 0
9 -29 57 0
1 -29 94 0
2 -29 124 0
8 -29 125 0
5 -28 52 0
8 -28 95 0
4 -28 118 0
5 -28 128 0
3 -28 139 0
4 -27 -139 0
1 -27 -115 0
5 -27 -112 0
7 -27 -81 0
10 -27 -74 0
7 -27 -68 0
2 -27 -46 0
6 -27 -33 0
10 -27 -30 0
2 -27 66 0
2 -27 69 0
9 -27 90 0
8 -27 102 0
10 -27 128 0
8 -26 -83 0
10 -26 -78 0
1 -26 -71 0
6 -26 -50 0
6 -26 -45 0
2 -26 93 0
4 -26 97 0
2 -26 98 0
10 -26 99 0
4 -26 100 0
4 -25 -131 0
7 -25 -99 0
9 -25 -91 0
2 -25 -31 0
2 -25 49 0
3 -25 51 0
4 -25 62 0
5 -25 80 0
4 -25 108 0
9 -25 111 0
1 -25 138 0
3 -24 -123 0
6 -24 -118 0
3 -24 -111 0
8 -24 -91 0
6 -24 -73 0
3 -24 -61 0
9 -24 -37 0
5 -24 -33 0
1 -24 72 0
8 -23 -96 0
3 -23 -74 0
10 -23 -36 0
9 -23 40 0
8 -23 82 0
6 -23 139 0
9 -22 -48 0
2 -22 -46 0
7 -22 -44 0
9 -22 24 0
6 -22 30 0
10 -22 35 0
6 -22 49 0
4 -22 83 0
2 -22 89 0
7 -22 116 0
7 -22 125 0
6 -21 -137 0
2 -21 -91 0
9 -21 -30 0
4 -21 -26 0
2 -21 -22 0
2 -21 49 0
9 -21 69 0
4 -21 88 0
10 -21 93 0
6 -21 98 0
6 -21 123 0
8 -21 126 0
1 -21 137 0
6 -20 -114 0
7 -20 -77 0
3 -20 -21 0
6 -20 24 0
5 -20 46 0
1 -20 82 0
2 -20 106 0
5 -20 118 0
3 -20 124 0
8 -19 -99 0
4 -19 -95 0
7 -19 -88 0
8 -19 -73 0
9 -19 -57 0
2 -19 -55 0
9 -19 33 0
6 -19 38 0
7 -19 68 0
5 -19 94 0
7 -18 -120 0
6 -18 -91 0
8 -18 -77 0
9 -18 -53 0
8 -18 -47 0
8 -18 -36 0
3 -18 55 0
7 -18 68 0
3 -18 95 0
8 -18 128 0
6 -18 135 0
3 -17 -129 0
4 -17 -116 0
3 -17 -108 0
5 -17 -83 0
9 -17 -24 0
7 -17 19 0
6 -17 55 0
1 -17 90 0
2 -17 111 0
7 -17 113 0
9 -17 134 0
4 -17 140 0
5 -16 -137 0
7 -16 -114 0
3 -16 -50 0
6 -16 -45 0
6 -16 -37 0
8 -16 39 0
3 -16 75 0
1 -16 107 0
6 -16 135 0
8 -16 138 0
8 -15 -137 0
4 -15 -127 0
6 -15 -120 0
6 -15 -79 0
6 -15 -77 0
4 -15 -76 0
8 -15 -49 0
3 -15 -39 0
9 -15 -27 0
1 -15 -19 0
7 -15 35 0
1 -15 81 0
5 -15 83 0
6 -15 85 0
7 -15 119 0
10 -14 -70 0
6 -14 18 0
8 -14 29 0
7 -14 54 0
5 -14 82 0
2 -14 116 0
2 -14 134 0
2 -13 -122 0
4 -13 -88 0
7 -13 -52 0
8 -13 -36 0
3 -13 26 0
9 -13 92 0
8 -13 112 0
7 -12 -134 0
7 -12 -95 0
6 -12 -90 0
1 -12 -39 0
3 -12 -26 0
2 -12 -19 0
6 -12 -18 0
6 -12 21 0
9 -12 25 0
9 -12 43 0
4 -12 47 0
9 -12 48 0
5 -12 77 0
4 -12 138 0
5 -12 139 0
10 -11 -121 0
1 -11 -120 0
5 -11 -116 0
6 -11 -100 0
8 -11 -56 0
2 -11 -14 0
1 -11 48 0
8 -11 59 0
3 -11 114 0
2 -11 125 0
3 -10 -120 0
9 -10 -86 0
9 -10 -56 0
4 -10 -32 0
7 -10 22 0
7 -10 69 0
1 -10 72 0
4 -10 78 0
3 -10 121 0
2 -10 124 0
6 -9 -110 0
4 -9 -97 0
7 -9 -91 0
2 -9 -85 0
4 -9 -71 0
5 -9 -31 0
5 -9 -24 0
3 -9 14 0
10 -9 29 0
8 -9 47 0
7 -9 87 0
10 -9 100 0
8 -9 117 0
2 -8 -129 0
6 -8 -123 0
6 -8 -112 0
2 -8 -107 0
6 -8 -77 0
4 -8 -67 0
4 -8 -43 0
7 -8 16 0
6 -8 34 0
3 -8 38 0
6 -8 44 0
9 -8 94 0
9 -8 104 0
3 -8 108 0
9 -8 125 0
3 -7 -113 0
5 -7 -100 0
1 -7 10 0
8 -7 16 0
9 -7 18 0
7 -7 43 0
9 -7 67 0
3 -7 79 0
2 -7 88 0
4 -6 -126 0
5 -6 -120 0
2 -6 -66 0
2 -6 18 0
2 -6 28 0
2 -6 98 0
10 -5 -132 0
3 -5 -28 0
6 -5 -9 0
6 -5 29 0
4 -5 63 0
2 -5 72 0
9 -5 78 0
7 -5 80 0
9 -5 81 0
5 -5 85 0
9 -5 138 0
5 -4 -128 0
4 -4 -55 0
8 -4 -16 0
7 -4 -13 0
4 -4 -10 0
2 -4 6 0
2 -4 22 0
4 -4 35 0
9 -4 82 0
10 -4 116 0
10 -3 -129 0
8 -3 -124 0
2 -3 -106 0
2 -3 -105 0
3 -3 -21 0
6 -3 4 0
3 -3 83 0
4 -3 85 0
7 -3 94 0
3 -3 128 0
4 -2 -134 0
9 -2 -78 0
9 -2 -69 0
8 -2 -68 0
3 -2 -33 0
1 -2 -4 0
8 -2 6 0
9 -2 20 0
9 -2 26 0
3 -2 32 0
8 -2 43 0
4 -2 51 0
6 -2 69 0
7 -1 -123 0
1 -1 -67 0
9 -1 -24 0
7 -1 40 0
2 -1 47 0
3 -1 69 0
6 -1 119 0
2 -1 139 0
2 1 -136 0
5 1 -117 0
3 1 -46 0
3 1 -21 0
6 1 2 0
9 1 54 0
5 1 66 0
9 1 76 0
6 1 87 0
7 1 88 0
3 1 91 0
5 1 107 0
6 1 122 0
1 2 -125 0
6 2 -120 0
6 2 -92 0
8 2 -86 0
5 2 -73 0
5 2 7 0
10 2 39 0
4 2 60 0
8 2 74 0
6 2 99 0
10 2 121 0
8 3 -125 0
4 3 -63 0
7 3 -29 0
9 3 28 0
6 3 75 0
3 3 104 0
2 4 -112 0
7 4 -71 0
7 4 -31 0
4 4 -21 0
9 4 -18 0
3 4 -6 0
3 4 26 0
4 4 30 0
3 4 83 0
8 4 93 0
1 4 95 0
4 4 102 0
2 4 131 0
6 4 134 0
5 5 -104 0
8 5 -15 0
2 5 31 0
2 5 56 0
3 5 70 0
6 5 106 0
2 5 112 0
6 5 121 0
4 5 129 0
6 5 134 0
5 6 -124 0
3 6 -119 0
10 6 -60 0
2 6 -53 0
2 6 -37 0
6 6 -26 0
5 6 -19 0
3 6 -7 0
3 6 12 0
2 6 21 0
6 6 32 0
2 6 47 0
4 6 51 0
7 6 133 0
5 7 -102 0
6 7 -82 0
5 7 -75 0
5 7 -19 0
9 7 -15 0
6 7 -10 0
10 7 34 0
4 7 53 0
4 7 70 0
2 7 82 0
5 7 129 0
6 7 131 0
7 8 -111 0
6 8 -98 0
2 8 -85 0
2 8 -55 0
3 8 16 0
6 8 25 0
3 8 67 0
3 8 125 0
7 8 127 0
4 9 -103 0
7 9 -100 0
2 9 -80 0
6 9 -52 0
9 9 -44 0
3 9 -35 0
2 9 -29 0
10 9 -20 0
6 9 50 0
8 9 72 0
4 9 97 0
2 9 128 0
3 10 -113 0
8 10 -87 0
2 10 -84 0
8 10 -79 0
8 10 -77 0
5 10 -70 0
2 10 -47 0
9 10 17 0
10 10 33 0
6 10 35 0
6 10 103 0
6 10 129 0
7 11 -124 0
7 11 -110 0
8 11 -87 0
3 11 -39 0
9 11 45 0
9 11 55 0
9 11 62 0
4 11 77 0
7 11 107 0
1 11 125 0
9 11 126 0
6 12 -135 0
3 12 -105 0
9 12 20 0
5 12 29 0
9 12 53 0
8 12 81 0
9 12 117 0
1 13 -123 0
10 13 -81 0
6 13 -77 0
2 13 37 0
8 13 60 0
4 13 61 0
6 13 66 0
8 13 68 0
3 13 83 0
5 13 106 0
5 13 127 0
7 14 -135 0
1 14 -77 0
2 14 -57 0
4 14 -41 0
8 14 -31 0
4 14 23 0
3 14 62 0
7 15 -138 0
3 15 -130 0
6 15 -101 0
4 15 -99 0
3 15 17 0
5 15 118 0
9 16 -123 0
6 16 -102 0
4 16 -72 0
4 16 23 0
4 16 29 0
1 16 41 0
3 16 59 0
4 16 120 0
1 16 121 0
8 17 -139 0
5 17 -70 0
8 17 -66 0
2 17 -55 0
1 17 -28 0
6 17 94 0
3 18 -127 0
5 18 -103 0
1 18 -59 0
10 18 -41 0
6 18 -27 0
2 18 40 0
4 18 93 0
4 18 116 0
5 18 129 0
6 19 -69 0
1 19 -58 0
7 19 -46 0
2 19 43 0
4 19 53 0
9 19 66 0
6 19 73 0
3 19 125 0
5 20 -104 0
9 20 -95 0
6 20 -89 0
8 20 -82 0
9 20 -50 0
8 20 27 0
2 20 41 0
9 20 56 0
5 20 74 0
6 20 91 0
7 20 114 0
6 20 129 0
6 21 -133 0
3 21 -102 0
9 21 -85 0
1 21 -25 0
3 21 30 0
8 21 63 0
6 21 65 0
4 21 68 0
3 22 -136 0
9 22 -116 0
8 22 -112 0
8 22 -108 0
9 22 -93 0
5 22 -75 0
9 22 -72 0
4 22 -45 0
4 22 -41 0
5 22 -28 0
6 22 30 0
7 22 43 0
3 22 57 0
2 22 115 0
5 22 138 0
3 23 -128 0
8 23 -107 0
6 23 -74 0
2 23 -59 0
4 23 -53 0
2 23 30 0
7 23 39 0
9 23 53 0
7 23 124 0
9 23 130 0
8 24 -139 0
7 24 -134 0
3 24 -108 0
6 24 -82 0
3 24 -78 0
6 24 -56 0
8 24 -47 0
2 24 -46 0
3 24 -41 0
6 24 51 0
2 24 114 0
7 24 120 0
5 24 132 0
5 25 -110 0
9 25 -99 0
9 25 -61 0
9 25 -59 0
7 25 -38 0
2 25 30 0
1 25 48 0
2 25 56 0
4 26 -137 0
9 26 -123 0
6 26 -114 0
4 26 -81 0
2 26 -78 0
7 26 -68 0
2 26 -57 0
1 26 56 0
4 26 63 0
1 26 75 0
8 26 121 0
10 27 -140 0
3 27 -129 0
4 27 -107 0
3 27 -98 0
7 27 -67 0
2 27 56 0
4 27 78 0
9 27 81 0
6 27 84 0
5 27 113 0
6 28 -119 0
1 28 -95 0
9 28 -90 0
6 28 -72 0
9 28 -42 0
8 28 -31 0
2 28 47 0
10 28 52 0
8 28 76 0
3 28 94 0
3 28 126 0
7 28 129 0
9 29 32 0
6 29 50 0
9 29 52 0
6 29 56 0
7 29 91 0
9 29 115 0
9 30 -134 0
7 30 -122 0
7 30 -113 0
8 30 -86 0
9 30 -67 0
1 30 -49 0
1 30 -38 0
6 30 88 0
2 30 90 0
4 30 102 0
5 30 104 0
7 31 -117 0
8 31 -113 0
2 31 -42 0
8 31 85 0
7 31 122 0
6 32 -63 0
6 32 -35 0
5 32 33 0
8 32 59 0
6 32 75 0
4 32 127 0
1 33 -48 0
8 33 56 0
10 33 81 0
9 33 106 0
4 33 114 0
8 33 135 0
4 33 138 0
10 34 -106 0
7 34 -89 0
3 34 44 0
7 34 51 0
4 34 79 0
1 34 104 0
6 34 123 0
5 35 -134 0
1 35 -92 0
2 35 -86 0
6 35 76 0
5 35 77 0
6 35 87 0
3 35 121 0
3 36 -136 0
7 36 -40 0
10 36 53 0
9 36 66 0
3 36 78 0
6 36 86 0
5 36 106 0
1 37 -119 0
1 37 58 0
8 37 61 0
1 37 70 0
8 37 90 0
7 37 91 0
9 38 -119 0
2 38 -102 0
6 38 -53 0
3 38 45 0
2 38 55 0
3 38 95 0
5 38 119 0
8 38 137 0
7 39 -62 0
6 39 51 0
4 39 78 0
1 39 98 0
6 39 132 0
5 40 -72 0
6 40 -63 0
10 40 -54 0
1 40 -45 0
8 40 62 0
3 40 83 0
7 40 91 0
8 40 126 0
2 41 -128 0
9 41 -76 0
3 41 -59 0
6 41 47 0
10 41 61 0
4 42 -98 0
4 42 -86 0
10 42 -50 0
2 42 -46 0
1 42 58 0
9 42 71 0
3 42 79 0
6 42 94 0
2 42 132 0
5 43 -139 0
8 43 -133 0
7 43 -121 0
3 43 -118 0
5 43 52 0
2 43 129 0
6 44 -119 0
5 44 -111 0
7 44 -92 0
1 44 -90 0
1 44 -82 0
7 44 74 0
1 44 84 0
8 44 94 0
9 44 109 0
7 44 125 0
6 44 129 0
1 45 -139 0
6 45 -121 0
8 45 -118 0
6 45 -97 0
6 45 -67 0
2 45 59 0
9 45 117 0
6 46 -83 0
4 46 -82 0
9 46 -65 0
4 46 -58 0
6 46 87 0
5 46 113 0
6 47 -88 0
10 47 -78 0
3 47 131 0
2 47 138 0
3 48 -126 0
7 48 -119 0
4 48 -85 0
8 48 -62 0
2 48 -61 0
10 48 67 0
8 48 88 0
2 48 102 0
7 49 -130 0
8 49 -98 0
10 49 -77 0
6 49 -74 0
5 49 -63 0
6 49 65 0
6 49 78 0
1 49 132 0
4 50 -110 0
3 50 -92 0
6 50 -74 0
5 50 -70 0
2 50 -65 0
2 50 -61 0
8 50 95 0
10 50 124 0
6 50 126 0
4 51 -116 0
5 51 -80 0
1 51 77 0
4 52 -77 0
7 52 -75 0
2 52 -67 0
6 52 -55 0
4 52 57 0
5 52 77 0
4 52 85 0
5 52 117 0
5 52 122 0
1 53 -127 0
7 53 -120 0
2 53 -87 0
8 53 -78 0
6 53 132 0
7 53 140 0
3 54 -109 0
2 54 -104 0
3 54 -97 0
4 54 -89 0
5 54 -56 0
5 54 85 0
9 54 89 0
9 54 95 0
5 55 -137 0
1 55 -136 0
7 55 -106 0
5 55 -85 0
6 55 65 0
1 55 105 0
9 56 -118 0
6 56 -108 0
4 56 -88 0
6 56 -64 0
8 56 107 0
9 56 117 0
9 57 -120 0
3 57 -69 0
2 57 -63 0
4 58 -128 0
7 58 -118 0
3 58 -100 0
9 58 -89 0
7 58 -66 0
1 58 77 0
6 58 106 0
4 58 124 0
4 58 127 0
6 59 -128 0
6 59 -101 0
6 59 -94 0
10 59 -88 0
1 59 78 0
6 59 106 0
9 59 107 0
5 59 114 0
6 59 123 0
6 60 -136 0
10 60 -132 0
2 60 -107 0
7 60 -87 0
8 60 -80 0
7 60 -75 0
10 60 -65 0
4 60 68 0
5 60 93 0
9 60 111 0
3 60 122 0
7 60 126 0
1 60 138 0
6 61 -99 0
4 61 -97 0
3 61 -91 0
5 61 76 0
1 62 -136 0
3 62 -104 0
1 62 -84 0
4 62 76 0
6 62 95 0
6 62 118 0
10 62 132 0
2 63 -135 0
6 63 -120 0
10 63 -102 0
7 63 -93 0
5 63 66 0
5 63 101 0
3 63 109 0
2 63 125 0
5 63 140 0
4 64 -114 0
7 64 69 0
3 64 85 0
2 64 126 0
7 64 130 0
6 64 140 0
6 65 -98 0
6 65 -87 0
8 65 127 0
3 65 129 0
7 66 -139 0
4 66 -129 0
6 66 -75 0
9 66 -69 0
9 66 77 0
6 66 128 0
2 67 -136 0
9 67 -135 0
9 67 -133 0
7 67 -132 0
5 67 -118 0
9 67 -104 0
9 67 -90 0
1 67 -75 0
9 67 92 0
6 67 121 0
6 67 136 0
4 68 77 0
8 68 124 0
6 68 129 0
7 69 -127 0
2 69 -121 0
4 69 -85 0
10 69 -78 0
3 69 85 0
10 69 103 0
6 70 -128 0
8 70 -121 0
6 70 -116 0
4 70 133 0
10 70 137 0
3 71 -88 0
7 71 123 0
5 71 131 0
2 71 139 0
6 72 -119 0
1 72 -108 0
3 72 82 0
5 72 125 0
9 73 -133 0
10 73 -115 0
9 73 -84 0
8 73 78 0
8 73 80 0
9 73 94 0
7 73 102 0
4 74 -137 0
4 74 -128 0
10 74 -118 0
2 74 97 0
10 75 -129 0
7 75 -115 0
3 75 -99 0
3 75 -77 0
7 75 113 0
5 76 -127 0
3 76 79 0
3 76 94 0
2 76 100 0
8 76 102 0
6 76 117 0
2 76 120 0
1 76 124 0
3 77 -135 0
6 77 -123 0
2 77 84 0
8 77 104 0
6 77 117 0
4 77 121 0
2 77 138 0
6 78 -130 0
4 78 -96 0
10 78 87 0
4 78 91 0
2 78 128 0
8 79 -132 0
1 79 -91 0
5 79 91 0
3 79 97 0
1 79 118 0
6 79 123 0
2 79 128 0
7 79 133 0
8 80 -138 0
5 80 -120 0
4 80 -104 0
3 80 -93 0
7 80 -84 0
6 81 -108 0
4 81 -104 0
5 81 -98 0
2 81 88 0
5 81 95 0
5 81 111 0
4 81 127 0
1 82 -111 0
6 82 96 0
2 82 129 0
6 82 139 0
9 83 -118 0
3 83 -112 0
2 83 -111 0
3 83 -95 0
2 83 95 0
5 83 130 0
4 83 136 0
10 84 -130 0
5 84 -101 0
9 84 -99 0
3 84 95 0
5 84 110 0
5 84 118 0
4 84 133 0
2 84 137 0
3 85 -135 0
8 85 -132 0
6 85 -129 0
5 85 -108 0
4 85 -106 0
2 85 -99 0
8 85 93 0
8 85 105 0
3 85 107 0
3 86 -135 0
3 86 -109 0
6 86 99 0
3 86 106 0
7 86 123 0
6 86 133 0
8 87 -117 0
6 87 -99 0
8 87 110 0
9 87 116 0
8 88 -123 0
10 88 125 0
4 88 136 0
2 89 -126 0
9 89 -120 0
8 89 94 0
10 89 101 0
2 89 114 0
3 89 127 0
5 90 -123 0
5 90 -120 0
5 90 -93 0
7 90 101 0
3 90 112 0
10 90 119 0
2 90 130 0
6 90 136 0
2 91 -140 0
9 92 -123 0
4 92 -95 0
4 92 99 0
2 92 132 0
6 92 135 0
8 93 134 0
4 94 -134 0
3 94 -132 0
5 94 -127 0
2 94 104 0
8 94 115 0
3 95 -106 0
1 95 108 0
6 95 117 0
2 95 124 0
4 95 132 0
7 95 137 0
2 96 -137 0
2 96 -105 0
7 96 -101 0
3 96 101 0
5 96 105 0
2 96 130 0
8 98 -119 0
8 98 -111 0
8 98 -109 0
10 100 -122 0
8 100 -103 0
9 100 128 0
6 101 -108 0
9 101 106 0
8 101 107 0
9 101 109 0
2 101 124 0
9 101 131 0
5 102 -128 0
10 102 -126 0
3 102 125 0
7 102 127 0
5 102 129 0
4 103 -129 0
6 103 -125 0
7 103 -113 0
4 103 124 0
2 103 127 0
8 104 -112 0
7 104 124 0
8 105 106 0
9 105 113 0
9 105 121 0
6 105 137 0
2 106 -135 0
3 106 -118 0
7 106 107 0
8 107 -125 0
2 107 -111 0
5 108 -124 0
8 108 -123 0
9 108 116 0
5 108 123 0
4 108 128 0
7 110 -134 0
3 110 -115 0
3 110 133 0
9 111 -119 0
2 111 139 0
7 112 -140 0
9 112 -120 0
4 112 134 0
5 113 -118 0
3 113 134 0
7 114 -121 0
10 114 122 0
9 115 120 0
10 115 123 0
1 116 -123 0
7 116 -121 0
7 117 125 0
9 118 -131 0
5 119 -134 0
5 119 -127 0
5 120 -138 0
6 122 134 0
8 123 136 0
2 124 134 0
4 125 -126 0
8 125 134 0
6 126 -135 0
2 127 -135 0
7 127 139 0
1 128 139 0
5 130 -131 0
4 130 135 0
3 134 135 0
8 135 -138 0
3 137 -139 0
5 138 -140 0
